(set-logic QF_LIA)
(declare-fun a () Int)
(declare-fun b () Int)
(declare-fun c () Int)
(assert (let ((.def_0 (or true true))) (let ((.def_1 (<= b 2))) (let ((.def_2 (<= 4 a))) (let ((.def_3 (<= 4 b))) (let ((.def_4 (not .def_3))) (let ((.def_5 (<= a 2))) (let ((.def_6 (not .def_5))) (let ((.def_7 (and .def_6 .def_4 .def_2 .def_1 .def_0))) (let ((.def_8 (not .def_1))) (let ((.def_9 (not .def_2))) (let ((.def_10 (and .def_5 .def_3 .def_9 .def_8 true))) (let ((.def_11 (or .def_10 .def_7))) (let ((.def_12 (+ b a))) (let ((.def_13 (= .def_12 6))) (let ((.def_14 (<= .def_12 4))) (let ((.def_15 (not .def_14))) (let ((.def_16 (= c 1))) (let ((.def_17 (not .def_16))) (let ((.def_18 (and .def_17 .def_15 .def_13 .def_11))) (let ((.def_19 (not .def_13))) (let ((.def_20 (and .def_14 .def_19 .def_10))) (let ((.def_21 (and .def_6 .def_4 .def_2 .def_1 true))) (let ((.def_22 (or .def_10 .def_21))) (let ((.def_23 (and .def_15 .def_13 .def_22))) (let ((.def_24 (or .def_23 .def_20))) (let ((.def_25 (and .def_16 .def_24))) (let ((.def_26 (or .def_25 .def_18))) (let ((.def_27 (= c b))) (let ((.def_28 (not .def_27))) (let ((.def_29 (<= c 3))) (let ((.def_30 (<= 0 c))) (let ((.def_31 (<= b 6))) (let ((.def_32 (<= 0 b))) (let ((.def_33 (<= a 6))) (let ((.def_34 (<= 0 a))) (let ((.def_35 (and .def_34 .def_33 .def_32 .def_31 .def_30 .def_29 .def_28 .def_26))) .def_35)))))))))))))))))))))))))))))))))))))
(check-sat)
